 200 40 
 15 54 18 74 14 45 60 99 65 51 94 34 
 20 60 62 86 99 32 20 67 98 33 37 42 
 81 48 52 80 52 54 87 63 71 83 89 55 
 15 63 3 76 
 21 
 4 5 6 7 8 9 11 13 14 16 19 20 
 25 27 30 32 33 35 36 37 38 
 18 
 3 4 5 6 10 14 15 16 19 21 23 24 
 28 31 32 36 37 39 
 30 
 1 2 3 4 5 6 7 10 12 14 15 17 
 18 19 22 23 24 26 27 28 29 30 31 32 
 33 34 35 36 38 39 
 16 
 1 2 5 7 10 13 14 17 18 19 20 21 
 26 30 31 37 
 38 
 1 2 3 4 5 6 7 8 9 10 11 12 
 13 14 15 16 17 18 19 20 21 22 23 24 
 25 26 27 28 30 31 33 34 35 36 37 38 
 39 40 
 33 
 2 3 4 6 7 8 9 10 11 12 13 14 
 15 16 18 20 22 23 24 27 28 29 30 31 
 32 33 34 35 36 37 38 39 40 
 7 
 10 11 12 20 22 34 36 
 21 
 4 6 8 9 10 12 13 15 16 22 23 24 
 25 28 30 32 34 35 37 38 39 
 2 
 11 36 
 8 
 3 8 10 14 23 30 32 39 
 38 
 1 2 3 4 5 6 7 8 9 10 12 13 
 14 15 16 17 18 19 20 21 22 23 24 25 
 26 27 28 29 31 32 33 34 35 36 37 38 
 39 40 
 21 
 1 2 4 6 7 8 9 10 12 14 17 18 
 21 23 28 30 31 34 35 39 40 
 38 
 1 2 3 4 5 6 7 8 9 10 11 12 
 14 15 16 17 18 19 20 21 22 23 24 25 
 26 27 28 29 30 31 32 34 35 36 37 38 
 39 40 
 3 
 9 16 22 
 4 
 6 10 17 37 
 40 
 1 2 3 4 5 6 7 8 9 10 11 12 
 13 14 15 16 17 18 19 20 21 22 23 24 
 25 26 27 28 29 30 31 32 33 34 35 36 
 37 38 39 40 
 4 
 23 35 39 40 
 34 
 1 2 3 4 5 6 7 8 9 10 12 13 
 14 15 18 20 21 22 23 25 26 27 29 30 
 31 32 33 34 35 36 37 38 39 40 
 8 
 5 7 9 25 35 36 37 40 
 38 
 1 2 3 4 5 6 7 8 9 10 11 12 
 13 14 15 16 17 18 19 20 21 22 23 24 
 25 26 28 29 30 31 32 34 35 36 37 38 
 39 40 
 18 
 2 3 4 9 12 13 18 19 20 22 25 26 
 27 28 29 32 37 38 
 37 
 2 3 4 6 7 8 9 10 11 12 13 14 
 15 16 17 18 19 20 21 22 24 25 26 27 
 28 29 30 31 32 33 34 35 36 37 38 39 
 40 
 22 
 3 4 7 9 10 12 14 16 19 20 21 22 
 23 24 25 28 30 31 32 34 37 40 
 28 
 3 4 5 6 7 8 9 10 12 13 14 15 
 17 19 20 21 23 24 25 27 28 30 32 35 
 36 37 38 39 
 13 
 4 8 9 12 15 19 24 28 32 34 35 36 
 38 
 4 
 9 10 27 33 
 31 
 2 3 4 5 6 8 9 11 14 15 16 18 
 19 20 23 24 25 26 27 28 29 31 32 33 
 34 35 36 37 38 39 40 
 8 
 1 17 18 21 24 27 34 40 
 9 
 5 8 15 20 22 24 26 36 40 
 31 
 1 3 4 5 6 7 8 9 10 11 12 13 
 15 16 18 19 21 22 23 24 25 26 28 29 
 31 33 34 35 37 38 40 
 8 
 2 9 16 17 31 34 37 40 
 21 
 2 3 6 7 8 9 11 12 14 16 17 18 
 19 22 23 24 25 26 30 31 37 
 22 
 1 2 3 5 6 7 10 11 12 16 18 19 
 21 22 28 30 32 33 34 37 38 39 
 40 
 1 2 3 4 5 6 7 8 9 10 11 12 
 13 14 15 16 17 18 19 20 21 22 23 24 
 25 26 27 28 29 30 31 32 33 34 35 36 
 37 38 39 40 
 21 
 2 4 5 6 7 8 12 13 14 15 16 18 
 21 22 25 27 30 35 37 39 40 
 3 
 1 17 24 
 12 
 2 4 11 13 20 28 29 30 34 37 39 40 
 35 
 1 2 3 4 5 6 7 8 9 10 11 12 
 13 14 15 17 18 19 20 21 23 24 25 26 
 27 28 31 32 33 34 36 37 38 39 40 
 22 
 1 2 8 9 10 11 12 14 15 16 17 18 
 20 21 22 25 30 33 34 35 38 40 
 36 
 1 2 3 4 5 6 7 8 9 10 11 12 
 13 14 15 16 17 19 20 21 22 23 24 25 
 26 28 29 30 31 32 35 36 37 38 39 40 
 4 
 3 4 27 33 
 30 
 1 2 5 7 8 9 10 13 14 15 16 17 
 18 19 20 21 22 23 25 26 27 28 29 31 
 32 34 35 36 39 40 
 21 
 2 5 7 8 9 11 14 15 17 18 20 22 
 26 28 30 31 33 34 35 37 38 
 8 
 8 18 21 23 25 31 36 38 
 2 
 24 35 
 23 
 2 3 5 6 7 9 10 12 13 14 15 17 
 19 20 25 29 33 34 35 36 37 39 40 
 38 
 1 3 4 5 6 7 8 9 10 11 12 13 
 15 16 17 18 19 20 21 22 23 24 25 26 
 27 28 29 30 31 32 33 34 35 36 37 38 
 39 40 
 21 
 1 2 7 8 9 10 11 13 15 17 18 20 
 21 22 25 26 28 30 32 36 37 
 33 
 1 2 3 4 5 8 9 10 11 12 14 15 
 16 17 18 19 20 22 23 24 25 26 27 28 
 29 30 31 32 34 36 37 38 40 
 36 
 1 2 3 4 5 6 7 8 9 10 11 13 
 14 15 16 17 18 19 20 21 22 23 24 25 
 26 27 28 29 30 32 33 35 37 38 39 40 
 14 
 3 5 7 8 10 11 23 26 31 33 34 38 
 39 40 
 12 
 2 4 5 14 17 19 20 21 28 36 37 39 
 19 
 2 4 5 6 7 8 9 10 13 14 15 17 
 18 19 25 29 31 32 37 
 11 
 5 7 10 13 14 20 25 26 31 34 39 
 12 
 1 2 4 6 7 18 21 24 35 37 38 40 
 40 
 1 2 3 4 5 6 7 8 9 10 11 12 
 13 14 15 16 17 18 19 20 21 22 23 24 
 25 26 27 28 29 30 31 32 33 34 35 36 
 37 38 39 40 
 21 
 1 9 10 13 14 17 19 20 22 23 25 26 
 27 28 29 30 31 33 35 36 37 
 11 
 5 6 11 12 16 18 21 23 24 27 39 
 36 
 1 2 3 4 5 7 8 9 10 11 12 13 
 14 15 16 17 18 19 20 21 22 23 24 25 
 26 29 30 31 32 33 34 35 36 38 39 40 
 11 
 2 4 17 18 21 22 28 32 35 38 39 
 36 
 1 3 4 6 7 8 9 10 11 12 13 15 
 16 17 18 19 20 22 23 24 25 26 27 28 
 29 30 31 32 33 34 35 36 37 38 39 40 
 26 
 2 11 12 13 16 17 18 19 20 21 22 23 
 24 25 26 27 28 30 31 32 33 34 35 36 
 37 39 
 9 
 2 9 14 16 17 22 23 28 39 
 8 
 4 6 14 20 27 32 33 36 
 19 
 3 4 6 11 13 14 17 22 23 25 26 27 
 29 30 31 32 33 34 37 
 35 
 1 2 3 4 5 6 8 9 10 11 13 14 
 15 17 18 19 20 21 22 23 24 25 26 27 
 28 29 30 31 32 33 34 35 36 38 40 
 2 
 21 39 
 34 
 2 3 5 6 7 8 9 10 11 12 13 14 
 15 16 17 18 19 20 22 23 24 26 27 28 
 29 30 31 32 33 34 35 38 39 40 
 18 
 3 4 5 6 7 8 9 14 17 20 22 23 
 26 33 36 38 39 40 
 20 
 3 4 5 8 9 14 16 17 20 21 22 23 
 26 29 30 31 35 37 38 40 
 4 
 4 9 22 34 
 34 
 1 2 3 4 5 6 7 8 9 10 11 13 
 14 15 16 17 18 19 20 21 22 23 25 26 
 28 29 30 32 34 35 36 37 38 40 
 33 
 2 3 4 5 6 7 8 10 11 13 14 15 
 17 18 19 21 23 24 25 26 27 28 29 30 
 31 32 33 34 35 37 38 39 40 
 19 
 2 5 7 8 10 13 14 15 20 22 24 25 
 26 27 28 32 33 36 38 
 16 
 2 4 5 6 8 9 10 11 13 16 17 25 
 26 27 30 37 
 31 
 1 3 4 5 6 7 8 9 12 13 15 16 
 18 19 20 21 23 24 25 26 27 28 29 31 
 32 33 34 35 37 38 40 
 19 
 1 2 3 4 8 9 16 17 18 19 23 27 
 29 30 31 33 35 36 40 
 28 
 1 2 3 4 5 6 8 10 11 13 14 15 
 16 18 19 21 23 25 26 27 29 30 31 32 
 33 34 36 38 
 26 
 2 3 4 5 7 8 9 10 11 14 15 16 
 17 20 21 22 24 27 29 30 33 34 35 38 
 39 40 
 37 
 1 2 3 5 6 7 8 9 10 11 12 13 
 15 16 17 18 19 21 22 23 24 25 26 27 
 28 29 30 31 32 33 34 35 36 37 38 39 
 40 
 36 
 1 2 3 4 5 6 7 8 9 10 11 12 
 13 14 16 17 18 19 20 21 22 23 24 25 
 26 27 28 29 30 31 32 33 34 36 38 39 
 25 
 2 4 5 8 9 11 13 14 15 19 20 21 
 23 27 28 29 30 32 33 35 36 37 38 39 
 40 
 18 
 7 11 12 14 15 17 18 21 22 24 25 27 
 31 32 34 36 37 38 
 19 
 9 10 13 16 18 22 23 24 25 27 28 32 
 34 35 36 37 38 39 40 
 39 
 1 2 3 4 5 6 7 8 10 11 12 13 
 14 15 16 17 18 19 20 21 22 23 24 25 
 26 27 28 29 30 31 32 33 34 35 36 37 
 38 39 40 
 24 
 1 3 4 5 6 7 9 10 13 14 16 19 
 24 26 27 29 31 32 34 35 36 37 38 40 
 33 
 1 2 3 5 6 7 9 10 11 14 16 17 
 18 19 20 22 23 24 25 26 27 28 29 30 
 31 32 33 34 35 36 37 39 40 
 38 
 1 2 3 5 6 7 8 9 10 11 12 13 
 15 16 17 18 19 20 21 22 23 24 25 26 
 27 28 29 30 31 32 33 34 35 36 37 38 
 39 40 
 29 
 3 4 5 6 8 9 11 12 13 14 16 17 
 19 20 21 22 23 25 27 28 30 31 32 33 
 34 36 37 38 39 
 17 
 1 8 9 14 15 17 19 22 24 25 29 30 
 31 34 35 36 38 
 40 
 1 2 3 4 5 6 7 8 9 10 11 12 
 13 14 15 16 17 18 19 20 21 22 23 24 
 25 26 27 28 29 30 31 32 33 34 35 36 
 37 38 39 40 
 34 
 1 2 3 5 6 8 9 11 12 13 14 15 
 16 17 18 19 20 21 24 25 27 28 29 30 
 31 32 33 34 35 36 37 38 39 40 
 33 
 2 3 5 6 7 8 10 11 13 14 16 17 
 18 19 20 22 23 24 25 26 27 28 29 30 
 31 32 33 34 35 36 37 38 39 
 35 
 2 4 5 6 7 9 10 11 12 14 15 16 
 17 18 19 20 21 22 23 24 25 26 27 29 
 30 31 32 33 34 35 36 37 38 39 40 
 6 
 4 11 22 24 36 40 
 19 
 3 7 13 16 17 19 20 21 25 26 30 31 
 32 33 34 35 37 38 40 
 14 
 8 14 16 18 23 24 26 28 31 32 33 34 
 37 39 
 12 
 1 4 5 11 12 13 16 18 23 28 37 40 
 30 
 1 2 3 5 7 8 11 12 13 14 15 16 
 17 18 19 20 22 24 26 28 29 31 32 34 
 35 36 37 38 39 40 
 15 
 3 4 11 12 14 15 24 25 27 29 30 31 
 32 33 36 
 3 
 5 11 21 
 14 
 2 3 6 12 13 17 19 23 26 27 28 32 
 36 37 
 27 
 1 2 3 5 8 10 11 13 14 15 16 18 
 19 20 21 23 25 26 27 28 29 30 32 33 
 37 38 39 
 6 
 1 4 6 18 32 38 
 11 
 6 13 14 16 21 22 24 35 36 39 40 
 32 
 1 2 3 5 6 7 8 9 10 11 12 13 
 15 16 17 19 20 21 22 23 24 26 27 28 
 29 31 33 34 35 38 39 40 
 27 
 3 5 6 7 8 9 11 12 13 14 15 16 
 18 19 20 21 22 24 25 27 28 29 31 33 
 36 37 39 
 38 
 1 2 3 4 5 7 8 9 10 11 12 13 
 14 15 16 17 18 19 20 21 22 23 24 25 
 26 27 28 29 30 31 32 33 34 36 37 38 
 39 40 
 24 
 1 2 3 4 5 7 9 11 13 15 17 18 
 19 20 24 25 26 28 29 32 34 37 38 39 
 26 
 1 3 6 8 9 10 11 12 13 14 15 18 
 21 23 24 25 26 27 29 30 31 33 34 36 
 37 40 
 30 
 2 4 5 7 8 11 14 15 16 17 18 19 
 20 21 22 23 24 26 27 29 30 31 32 33 
 34 35 37 38 39 40 
 22 
 2 3 4 6 11 12 14 15 17 18 20 21 
 22 25 26 28 29 32 33 35 39 40 
 23 
 4 6 11 12 13 14 15 16 19 23 25 26 
 27 28 30 32 33 34 35 37 38 39 40 
 8 
 2 7 20 21 24 28 32 38 
 10 
 2 10 11 15 22 25 30 31 33 38 
 37 
 1 3 5 6 7 8 9 10 11 12 13 14 
 15 16 17 18 19 20 22 23 24 25 26 27 
 28 29 30 31 32 33 34 35 36 37 38 39 
 40 
 6 
 12 16 17 18 24 27 
 20 
 2 3 4 5 6 7 9 11 13 15 20 22 
 25 27 28 32 33 36 37 40 
 9 
 6 7 8 13 18 20 25 29 30 
 14 
 1 4 10 11 12 13 14 18 20 23 25 26 
 29 30 
 20 
 1 2 3 4 8 9 10 15 18 20 21 22 
 25 26 29 30 31 36 37 38 
 21 
 1 2 3 6 11 13 14 16 21 22 23 24 
 26 27 29 30 31 34 35 38 40 
 34 
 1 3 4 5 6 7 8 10 11 12 13 14 
 15 16 17 18 20 21 22 23 24 25 27 28 
 29 31 32 34 35 36 37 38 39 40 
 23 
 3 4 6 7 10 11 13 16 17 20 23 24 
 26 27 29 30 31 32 33 34 36 37 38 
 16 
 1 8 9 10 11 12 15 17 19 21 25 26 
 28 29 33 38 
 11 
 3 6 10 12 21 24 25 26 27 31 32 
 18 
 4 7 8 9 10 14 16 17 19 22 23 24 
 25 26 27 29 35 36 
 17 
 2 4 6 7 10 11 12 15 16 18 20 25 
 27 28 31 33 34 
 32 
 2 4 5 6 8 10 12 13 14 15 16 17 
 18 19 20 21 22 26 27 28 29 30 31 32 
 33 34 35 36 37 38 39 40 
 38 
 1 2 3 4 5 6 7 8 9 10 11 12 
 13 14 15 16 17 19 20 21 22 23 24 25 
 26 27 28 29 30 31 32 33 34 35 36 37 
 39 40 
 4 
 4 10 35 36 
 22 
 3 4 5 7 8 9 10 13 14 16 17 19 
 20 21 22 23 25 26 29 30 32 39 
 18 
 1 4 7 8 9 10 11 12 18 19 29 30 
 31 33 35 38 39 40 
 22 
 2 5 6 7 8 9 13 14 15 16 17 18 
 21 23 24 25 26 28 29 35 37 38 
 27 
 1 2 7 8 9 10 12 13 14 15 17 18 
 21 22 23 24 25 27 28 31 33 34 35 36 
 37 39 40 
 7 
 5 8 11 15 25 32 36 
 23 
 1 2 3 7 9 13 18 19 21 23 24 26 
 27 29 30 31 32 33 34 35 37 38 40 
 20 
 3 4 5 7 11 12 13 14 18 19 21 22 
 23 26 28 30 32 34 36 40 
 15 
 1 3 5 8 10 12 15 17 19 22 24 27 
 34 37 40 
 26 
 1 2 3 4 5 6 8 9 11 12 13 16 
 17 21 22 24 26 29 31 32 33 35 36 37 
 38 39 
 9 
 4 9 14 26 32 33 34 38 39 
 6 
 1 10 18 22 33 35 
 6 
 2 8 11 14 15 38 
 26 
 1 2 4 5 6 7 8 9 10 14 16 18 
 20 22 25 26 29 30 31 32 34 36 37 38 
 39 40 
 6 
 11 12 15 30 31 37 
 38 
 1 2 3 4 5 7 8 9 10 11 12 13 
 14 15 16 17 18 19 20 21 22 23 24 25 
 27 28 29 30 31 32 33 34 35 36 37 38 
 39 40 
 20 
 1 3 4 5 7 8 9 10 17 18 20 23 
 25 26 27 28 30 32 33 34 
 13 
 5 6 10 12 13 15 20 21 30 31 34 36 
 39 
 24 
 1 2 3 5 7 8 11 12 13 14 16 17 
 18 19 21 22 23 24 25 28 30 32 33 36 
 13 
 10 11 15 18 20 22 26 28 34 35 36 38 
 39 
 18 
 2 9 10 11 14 15 18 19 20 21 25 27 
 31 32 34 35 37 40 
 30 
 2 3 4 5 6 8 9 11 13 14 16 18 
 19 20 21 22 24 26 28 30 31 32 33 34 
 35 36 37 38 39 40 
 6 
 1 3 6 8 24 31 
 15 
 4 5 9 13 14 15 22 23 27 28 29 30 
 38 39 40 
 21 
 4 6 7 8 13 14 17 18 19 21 22 24 
 26 29 32 33 34 36 37 38 40 
 27 
 1 3 4 5 6 9 10 11 12 13 14 15 
 16 17 19 20 25 26 27 28 29 30 31 32 
 36 37 39 
 3 
 4 11 14 
 27 
 2 3 4 5 6 8 9 10 11 12 13 14 
 15 17 19 21 25 27 28 31 32 33 34 37 
 38 39 40 
 14 
 2 3 4 8 12 13 15 18 29 31 32 36 
 37 40 
 19 
 1 2 3 4 12 14 16 18 21 27 28 29 
 30 31 32 34 35 36 39 
 28 
 2 3 4 5 6 7 9 10 11 14 15 17 
 19 22 23 26 27 28 29 30 32 33 34 35 
 36 37 38 40 
 29 
 1 2 4 5 6 7 8 9 10 12 14 15 
 16 17 19 20 21 22 23 26 27 28 29 30 
 33 35 36 37 39 
 23 
 1 6 10 11 12 13 14 15 16 20 22 27 
 28 29 30 31 32 33 34 35 36 38 39 
 40 
 1 2 3 4 5 6 7 8 9 10 11 12 
 13 14 15 16 17 18 19 20 21 22 23 24 
 25 26 27 28 29 30 31 32 33 34 35 36 
 37 38 39 40 
 30 
 2 3 4 8 11 12 13 14 15 16 17 18 
 19 21 23 24 25 27 28 29 30 31 33 34 
 35 36 37 38 39 40 
 32 
 1 4 5 6 7 8 9 11 12 13 17 18 
 19 21 22 24 25 26 27 28 29 30 31 32 
 33 34 35 36 37 38 39 40 
 38 
 1 2 4 5 6 7 8 9 10 11 12 13 
 14 15 16 17 19 20 21 22 23 24 25 26 
 27 28 29 30 31 32 33 34 35 36 37 38 
 39 40 
 9 
 2 10 12 14 15 21 31 33 40 
 4 
 3 10 34 35 
 22 
 1 3 7 9 11 14 15 16 17 18 20 21 
 22 23 25 26 27 29 30 32 33 38 
 8 
 6 9 10 15 19 20 33 34 
 28 
 1 2 3 4 5 6 8 9 11 12 14 17 
 18 19 20 23 24 25 27 28 29 31 32 35 
 36 37 38 39 
 35 
 2 3 4 5 6 7 8 9 12 13 14 15 
 17 18 20 21 22 23 24 25 26 27 28 29 
 30 31 32 33 34 35 36 37 38 39 40 
 20 
 2 5 7 9 10 11 14 17 21 25 26 27 
 30 31 33 34 36 37 38 40 
 19 
 1 2 5 9 10 13 14 15 20 21 22 23 
 24 25 31 33 34 35 39 
 40 
 1 2 3 4 5 6 7 8 9 10 11 12 
 13 14 15 16 17 18 19 20 21 22 23 24 
 25 26 27 28 29 30 31 32 33 34 35 36 
 37 38 39 40 
 30 
 1 2 3 4 5 6 7 8 9 10 11 12 
 14 15 16 17 18 19 22 23 25 29 30 31 
 32 33 34 35 36 40 
 20 
 2 3 5 6 7 10 12 13 14 17 18 19 
 22 24 26 27 29 35 37 40 
 2 
 1 33 
 8 
 12 15 20 26 28 32 34 37 
 5 
 8 10 27 28 31 
 19 
 2 3 6 9 10 11 12 13 19 22 23 24 
 26 29 32 34 35 36 40 
 9 
 6 17 19 22 25 36 37 38 39 
 23 
 1 3 5 6 7 8 9 10 12 16 17 18 
 22 23 25 26 29 32 33 34 36 39 40 
 39 
 1 2 3 4 5 6 7 8 9 10 11 12 
 14 15 16 17 18 19 20 21 22 23 24 25 
 26 27 28 29 30 31 32 33 34 35 36 37 
 38 39 40 
 21 
 4 5 6 8 11 12 16 20 22 24 25 26 
 27 28 29 32 33 34 35 38 39 
 6 
 2 16 21 29 32 38 
 13 
 6 7 10 11 14 17 27 28 30 33 36 39 
 40 
 15 
 4 6 10 12 17 20 25 27 28 31 32 34 
 37 39 40 
 9 
 1 7 13 14 22 25 28 34 38 
 38 
 1 2 5 6 7 8 9 10 11 12 13 14 
 15 16 17 18 19 20 21 22 23 24 25 26 
 27 28 29 30 31 32 33 34 35 36 37 38 
 39 40 
 17 
 1 2 9 11 20 21 22 24 25 28 30 32 
 33 34 37 38 40 
 18 
 2 6 9 10 11 13 15 23 26 28 29 30 
 31 32 35 37 39 40 
 21 
 1 2 4 5 6 8 10 13 15 18 19 21 
 22 23 26 27 30 32 33 35 38 
 8 
 7 9 15 19 23 27 34 36 
 16 
 1 5 7 13 19 20 22 23 24 27 28 31 
 33 36 37 38 
 30 
 1 2 3 5 6 7 8 10 11 12 13 14 
 15 16 17 19 20 21 23 24 25 26 28 29 
 30 31 33 34 39 40 
 32 
 2 3 4 7 8 9 11 12 13 14 15 16 
 17 18 20 22 24 25 26 27 28 29 30 31 
 32 33 34 35 36 37 38 40 
 22 
 2 6 7 9 11 12 14 15 18 19 20 22 
 23 25 27 28 29 30 32 35 37 40 
 4 
 22 29 34 35 
 